jobs  (incl. supersource/sink ):	52
RESOURCES
- renewable                 : 4 R
- nonrenewable              : 4 N
- doubly constrained        : 0 D
************************************************************************
PRECEDENCE RELATIONS:
jobnr.    #modes  #successors   successors
1	1	9		2 3 4 6 7 8 9 10 14 
2	6	5		24 23 15 13 5 
3	6	8		29 22 21 20 19 17 13 11 
4	6	7		35 29 24 21 18 15 12 
5	6	7		35 30 29 28 27 21 12 
6	6	5		30 29 21 12 11 
7	6	8		35 29 28 27 26 25 20 13 
8	6	5		26 24 23 16 13 
9	6	6		35 28 27 25 24 13 
10	6	6		37 32 30 28 26 23 
11	6	7		37 34 33 31 28 27 25 
12	6	5		51 37 26 25 20 
13	6	9		51 50 49 37 36 34 32 31 30 
14	6	7		50 37 34 33 31 27 25 
15	6	6		49 37 34 31 28 27 
16	6	5		49 37 30 28 27 
17	6	5		36 34 28 25 24 
18	6	5		49 37 33 28 27 
19	6	10		51 50 49 48 47 46 36 33 32 31 
20	6	8		50 48 47 36 34 33 32 31 
21	6	5		43 37 36 33 25 
22	6	5		48 46 37 32 26 
23	6	8		49 47 45 40 36 35 34 31 
24	6	8		49 48 46 44 43 39 33 32 
25	6	9		49 48 47 46 44 41 40 39 32 
26	6	4		50 36 33 31 
27	6	6		47 46 44 40 36 32 
28	6	9		51 50 48 47 45 43 41 39 38 
29	6	6		46 44 43 40 39 32 
30	6	4		48 47 39 33 
31	6	5		44 43 42 41 38 
32	6	3		45 42 38 
33	6	2		41 40 
34	6	2		46 38 
35	6	2		43 38 
36	6	1		39 
37	6	1		38 
38	6	1		52 
39	6	1		52 
40	6	1		52 
41	6	1		52 
42	6	1		52 
43	6	1		52 
44	6	1		52 
45	6	1		52 
46	6	1		52 
47	6	1		52 
48	6	1		52 
49	6	1		52 
50	6	1		52 
51	6	1		52 
52	1	0		
************************************************************************
REQUESTS/DURATIONS
jobnr.	mode	dur	R1	R2	R3	R4	N1	N2	N3	N4	
------------------------------------------------------------------------
1	1	0	0	0	0	0	0	0	0	0	
2	1	3	4	1	5	4	18	26	15	8	
	2	4	4	1	3	4	17	22	13	7	
	3	5	4	1	3	4	15	17	12	6	
	4	21	4	1	3	4	15	14	11	6	
	5	26	4	1	2	4	11	9	7	6	
	6	30	4	1	1	4	11	2	6	5	
3	1	9	5	1	5	5	3	20	24	21	
	2	10	4	1	3	4	3	18	19	20	
	3	13	3	1	3	4	3	17	14	20	
	4	20	2	1	2	4	3	17	11	19	
	5	22	2	1	1	4	3	15	9	19	
	6	26	1	1	1	4	3	13	6	18	
4	1	1	5	5	3	3	16	27	22	22	
	2	3	4	5	2	3	14	27	22	22	
	3	15	4	5	2	2	12	27	22	20	
	4	25	4	5	2	2	8	26	22	19	
	5	26	4	5	2	2	8	25	22	15	
	6	27	4	5	2	1	6	25	22	14	
5	1	1	4	5	3	5	9	26	15	7	
	2	6	3	4	3	4	9	20	14	7	
	3	8	3	4	3	4	9	17	12	5	
	4	19	3	3	3	4	8	13	12	5	
	5	23	3	2	2	4	8	9	11	3	
	6	26	3	2	2	4	7	6	10	3	
6	1	5	3	5	3	2	17	12	29	16	
	2	7	2	4	3	1	14	11	26	15	
	3	12	2	4	3	1	14	10	20	13	
	4	13	2	4	3	1	13	10	18	13	
	5	26	2	4	2	1	12	9	14	11	
	6	30	2	4	2	1	11	8	12	10	
7	1	6	5	5	4	4	15	28	29	30	
	2	9	3	3	3	3	14	23	27	30	
	3	12	3	3	3	3	13	22	27	30	
	4	15	3	2	2	2	12	20	26	30	
	5	20	2	1	2	1	11	17	25	30	
	6	28	1	1	2	1	10	16	24	30	
8	1	5	5	5	5	2	21	22	27	16	
	2	11	4	5	4	1	21	22	24	16	
	3	12	4	5	4	1	21	20	15	13	
	4	15	4	5	4	1	21	16	13	7	
	5	18	4	5	3	1	20	14	8	6	
	6	22	4	5	3	1	20	13	2	1	
9	1	5	5	5	2	3	15	28	15	12	
	2	15	4	4	2	3	15	23	14	12	
	3	21	3	3	2	3	11	20	14	12	
	4	23	3	3	1	2	9	15	13	12	
	5	25	2	3	1	1	6	10	12	11	
	6	30	1	2	1	1	5	5	12	11	
10	1	1	4	4	5	2	18	27	28	18	
	2	2	4	4	4	2	17	24	26	18	
	3	3	4	3	4	2	15	21	23	15	
	4	4	4	2	4	2	14	17	21	14	
	5	19	3	2	3	2	13	15	20	13	
	6	23	3	1	3	2	13	14	17	11	
11	1	9	4	3	4	4	28	14	28	11	
	2	10	3	2	3	4	24	12	27	9	
	3	12	3	2	3	3	18	9	24	7	
	4	24	3	2	3	2	12	8	22	6	
	5	29	3	2	2	2	10	6	16	5	
	6	30	3	2	2	1	7	2	15	3	
12	1	5	4	2	3	1	27	23	2	27	
	2	6	4	2	2	1	26	21	2	26	
	3	13	3	2	2	1	26	18	2	25	
	4	15	3	2	2	1	25	16	2	23	
	5	22	2	2	2	1	25	15	2	22	
	6	30	1	2	2	1	25	12	2	22	
13	1	5	5	4	3	4	7	27	25	17	
	2	10	4	4	2	3	6	26	24	13	
	3	15	4	3	2	3	6	25	21	11	
	4	21	4	3	1	2	6	25	17	9	
	5	28	4	2	1	2	5	23	13	5	
	6	30	4	2	1	1	5	23	12	2	
14	1	4	3	2	5	4	21	26	24	18	
	2	5	3	2	4	4	19	23	22	17	
	3	17	3	2	3	4	19	19	20	15	
	4	19	2	2	3	3	18	17	20	15	
	5	23	2	1	1	3	18	14	18	13	
	6	29	2	1	1	2	17	14	18	12	
15	1	2	3	4	3	4	29	16	23	17	
	2	5	3	4	2	3	22	12	23	16	
	3	7	3	4	2	3	19	10	22	16	
	4	20	3	4	2	2	12	9	22	15	
	5	25	2	4	2	1	12	7	21	15	
	6	27	2	4	2	1	5	4	21	14	
16	1	9	5	4	4	3	11	29	30	9	
	2	12	4	3	4	3	10	26	29	8	
	3	14	3	3	4	3	9	26	29	7	
	4	16	3	3	3	2	8	24	28	5	
	5	23	2	1	3	2	7	24	28	4	
	6	26	2	1	3	1	7	22	28	4	
17	1	4	2	4	4	3	24	6	20	22	
	2	10	2	3	3	2	22	5	17	21	
	3	21	2	3	2	2	22	4	16	20	
	4	25	2	2	2	2	20	3	12	20	
	5	26	2	1	1	2	16	1	11	19	
	6	30	2	1	1	2	14	1	9	19	
18	1	5	1	2	1	4	18	16	13	29	
	2	6	1	1	1	4	18	14	11	28	
	3	12	1	1	1	4	16	13	11	28	
	4	13	1	1	1	4	12	12	10	28	
	5	19	1	1	1	3	11	10	9	26	
	6	29	1	1	1	3	9	8	9	26	
19	1	9	3	4	4	4	26	17	26	26	
	2	14	2	3	4	3	24	17	25	24	
	3	15	2	3	4	3	18	16	23	22	
	4	18	1	2	4	3	17	15	21	19	
	5	21	1	2	4	2	10	14	20	18	
	6	29	1	1	4	2	10	13	18	16	
20	1	3	4	5	3	4	11	6	9	12	
	2	5	4	5	2	4	11	5	9	10	
	3	9	4	5	2	4	11	4	9	9	
	4	15	4	5	1	4	11	2	9	7	
	5	19	4	5	1	4	10	1	9	6	
	6	22	4	5	1	4	10	1	9	5	
21	1	6	4	1	3	2	23	19	21	25	
	2	10	3	1	3	2	23	19	21	23	
	3	11	3	1	3	2	22	19	20	19	
	4	27	3	1	3	2	22	19	20	16	
	5	28	2	1	2	1	20	19	20	11	
	6	29	2	1	2	1	20	19	19	11	
22	1	2	4	3	3	4	29	21	15	8	
	2	3	4	2	2	3	25	20	14	7	
	3	4	4	2	2	3	22	18	12	7	
	4	5	4	2	1	2	20	18	11	6	
	5	6	4	2	1	2	14	16	11	5	
	6	18	4	2	1	2	13	15	10	5	
23	1	2	4	2	5	4	15	28	26	30	
	2	4	4	2	4	4	14	23	24	26	
	3	10	4	2	4	4	14	19	22	26	
	4	15	4	2	4	4	13	16	22	22	
	5	16	4	2	3	3	13	12	20	20	
	6	28	4	2	3	3	13	7	19	19	
24	1	6	1	5	4	2	22	26	21	28	
	2	11	1	4	4	2	21	23	21	21	
	3	15	1	4	4	2	17	22	19	18	
	4	23	1	3	3	2	14	21	15	17	
	5	26	1	3	3	2	9	18	14	9	
	6	28	1	3	2	2	6	15	10	9	
25	1	3	3	2	2	2	12	22	23	22	
	2	9	2	1	1	1	11	20	19	21	
	3	17	2	1	1	1	11	19	17	17	
	4	18	2	1	1	1	11	15	14	16	
	5	25	2	1	1	1	11	13	7	15	
	6	28	2	1	1	1	11	10	2	13	
26	1	3	4	4	1	5	27	19	24	29	
	2	12	3	4	1	4	25	18	21	23	
	3	15	3	3	1	3	24	18	21	19	
	4	22	3	2	1	2	19	18	19	17	
	5	23	3	2	1	2	16	18	14	15	
	6	30	3	1	1	1	13	18	14	13	
27	1	7	4	3	4	3	22	21	28	10	
	2	12	4	2	4	3	20	16	24	9	
	3	14	3	2	4	3	18	14	22	8	
	4	15	2	2	4	2	16	13	20	7	
	5	25	1	2	4	2	13	7	17	7	
	6	27	1	2	4	2	12	6	15	5	
28	1	5	4	3	2	4	21	21	22	24	
	2	6	3	3	2	3	17	18	22	23	
	3	7	3	3	2	3	17	15	17	22	
	4	15	3	3	2	2	14	11	12	22	
	5	24	3	3	1	2	11	8	12	21	
	6	25	3	3	1	2	7	6	6	21	
29	1	17	2	3	3	3	19	10	20	25	
	2	18	2	3	2	3	17	10	16	21	
	3	23	2	3	2	3	15	9	14	21	
	4	24	2	3	2	3	13	7	8	18	
	5	27	2	3	2	3	13	7	8	12	
	6	28	2	3	2	3	9	6	5	9	
30	1	1	1	1	4	5	27	26	20	22	
	2	2	1	1	4	4	25	22	17	22	
	3	9	1	1	4	4	21	15	15	22	
	4	10	1	1	4	4	18	12	13	22	
	5	12	1	1	3	3	15	8	11	22	
	6	15	1	1	3	3	14	5	11	22	
31	1	5	4	5	5	4	3	30	19	18	
	2	13	4	4	5	3	2	29	17	17	
	3	15	3	4	5	3	2	28	17	14	
	4	20	3	4	5	3	2	27	15	13	
	5	21	2	4	5	3	2	25	15	12	
	6	26	2	4	5	3	2	25	13	10	
32	1	17	3	1	4	3	26	3	8	25	
	2	20	3	1	4	3	22	3	7	21	
	3	21	3	1	4	3	19	2	6	18	
	4	24	2	1	4	3	15	2	3	16	
	5	25	2	1	4	3	9	2	2	13	
	6	26	1	1	4	3	9	1	1	7	
33	1	5	4	3	1	3	23	27	25	21	
	2	8	4	3	1	3	22	25	24	17	
	3	14	3	3	1	3	19	23	24	14	
	4	15	2	3	1	3	17	23	23	11	
	5	19	1	3	1	3	16	21	22	8	
	6	23	1	3	1	3	15	19	22	7	
34	1	4	2	4	5	2	28	5	23	28	
	2	12	2	3	4	1	24	5	23	22	
	3	14	2	2	3	1	19	5	22	21	
	4	17	2	2	2	1	19	5	21	17	
	5	18	2	2	2	1	12	5	21	14	
	6	25	2	1	1	1	11	5	20	7	
35	1	3	2	5	4	4	20	25	28	27	
	2	4	2	4	4	3	18	24	25	23	
	3	6	2	4	3	3	17	21	24	23	
	4	10	2	4	3	2	16	20	18	20	
	5	11	1	4	2	2	15	18	15	14	
	6	16	1	4	1	1	14	18	12	14	
36	1	2	4	4	3	2	17	26	25	5	
	2	4	4	4	3	1	16	23	20	5	
	3	10	3	4	3	1	16	18	18	5	
	4	11	2	4	2	1	16	18	16	4	
	5	12	1	4	2	1	15	15	15	4	
	6	29	1	4	2	1	15	10	13	4	
37	1	3	3	4	4	3	25	12	5	14	
	2	4	2	3	3	3	25	12	5	14	
	3	7	2	3	3	3	25	10	4	14	
	4	16	1	3	3	3	25	10	4	13	
	5	17	1	2	3	3	25	8	3	13	
	6	29	1	2	3	3	25	7	3	12	
38	1	12	2	3	2	5	16	24	22	12	
	2	14	2	2	2	4	12	20	22	11	
	3	17	2	2	2	3	12	16	22	11	
	4	18	2	2	2	3	8	15	22	10	
	5	19	2	1	2	3	7	14	21	10	
	6	20	2	1	2	2	5	11	21	9	
39	1	3	1	3	4	5	15	17	22	15	
	2	5	1	3	4	4	15	17	16	14	
	3	9	1	3	4	4	15	17	13	9	
	4	19	1	2	4	3	15	17	11	9	
	5	23	1	2	4	3	15	17	6	4	
	6	30	1	2	4	3	15	17	3	2	
40	1	5	2	4	4	4	25	21	30	23	
	2	17	1	4	3	4	25	17	25	19	
	3	23	1	3	3	4	21	15	19	17	
	4	25	1	3	3	3	17	9	17	11	
	5	27	1	2	2	3	11	8	14	10	
	6	30	1	1	2	3	9	3	10	6	
41	1	4	3	5	5	2	16	12	16	11	
	2	9	2	4	4	2	16	12	15	10	
	3	10	2	4	4	2	16	12	14	9	
	4	11	1	4	3	2	16	11	13	7	
	5	22	1	3	3	2	16	11	12	6	
	6	28	1	3	3	2	16	10	12	6	
42	1	2	5	3	5	3	22	24	26	24	
	2	11	4	3	4	3	21	23	24	18	
	3	21	4	3	3	3	20	22	21	15	
	4	22	3	3	3	2	18	21	21	12	
	5	23	3	2	2	1	17	20	18	5	
	6	25	2	2	2	1	16	20	17	4	
43	1	10	4	3	5	5	20	30	24	8	
	2	18	3	3	4	5	17	29	23	8	
	3	19	3	3	4	5	17	29	16	6	
	4	26	2	3	4	5	11	29	11	5	
	5	27	2	3	3	5	10	28	7	4	
	6	30	2	3	3	5	8	28	6	3	
44	1	5	4	3	4	4	27	18	19	27	
	2	6	4	3	4	4	24	18	16	25	
	3	7	3	3	4	4	24	18	16	25	
	4	13	3	3	3	3	23	18	14	23	
	5	16	3	2	3	3	22	18	13	21	
	6	26	2	2	3	3	20	18	12	20	
45	1	1	2	3	2	4	20	11	23	26	
	2	7	2	3	2	3	19	10	22	25	
	3	14	2	3	2	3	14	10	21	25	
	4	17	2	3	2	3	12	9	21	25	
	5	19	2	3	2	2	8	9	20	23	
	6	29	2	3	2	2	7	8	19	23	
46	1	3	4	3	4	4	2	27	18	22	
	2	4	4	2	3	3	2	23	13	21	
	3	7	4	2	2	3	2	21	10	15	
	4	9	4	2	2	3	2	17	8	11	
	5	11	4	1	1	2	2	10	7	7	
	6	26	4	1	1	2	2	9	4	4	
47	1	2	4	4	3	5	17	13	28	7	
	2	13	4	3	3	4	13	12	28	6	
	3	15	4	3	3	4	12	12	28	5	
	4	16	4	2	3	4	12	12	28	3	
	5	18	4	2	3	4	9	11	27	2	
	6	22	4	2	3	4	8	11	27	2	
48	1	6	4	1	5	2	26	21	28	17	
	2	7	4	1	4	2	21	20	25	16	
	3	16	3	1	4	2	14	19	24	16	
	4	18	3	1	3	2	12	18	22	15	
	5	23	2	1	3	2	6	16	22	14	
	6	28	1	1	2	2	6	16	20	14	
49	1	1	3	4	3	3	20	11	24	25	
	2	2	3	3	2	3	18	8	23	24	
	3	17	2	3	2	3	17	8	20	22	
	4	21	2	2	2	3	17	7	17	21	
	5	27	1	1	2	3	15	5	16	20	
	6	30	1	1	2	3	14	5	15	19	
50	1	3	4	3	5	4	21	26	29	29	
	2	23	4	3	3	4	20	22	28	26	
	3	24	3	3	3	3	19	21	28	24	
	4	25	3	3	3	3	19	14	27	24	
	5	27	1	3	2	3	17	11	26	23	
	6	29	1	3	1	2	17	11	26	20	
51	1	4	3	3	1	4	17	8	27	25	
	2	7	3	2	1	3	15	8	23	18	
	3	11	3	2	1	3	11	8	23	16	
	4	12	3	2	1	2	9	8	22	14	
	5	14	3	2	1	2	8	8	18	10	
	6	28	3	2	1	1	4	8	17	6	
52	1	0	0	0	0	0	0	0	0	0	
************************************************************************

 RESOURCE AVAILABILITIES 
	R 1	R 2	R 3	R 4	N 1	N 2	N 3	N 4
	22	19	21	19	754	784	874	761

************************************************************************
